============================[ Problem Statistics ]=============================|                                                                             ||  Number of variables:          4242                                         ||  Number of clauses:            9729                                         ||  Parse time:                   0.13 s                                       ||                                                                             |============================[ Search Statistics ]==============================| Conflicts |          ORIGINAL         |          LEARNT          | Progress ||           |    Vars  Clauses Literals |    Limit  Clauses Lit/Cl |          |==============================================================================================================================================================restarts              : 1conflicts             : 80             (370 /sec)decisions             : 165            (0.00 % random) (764 /sec)propagations          : 8211           (38014 /sec)conflict literals     : 4044           (95.96 % deleted)CPU time              : 0.216 sSATISFIABLE